LAMMPS (29 Aug 2024 - Development - f820c928a)
# Tethered nanorods

atom_style	molecular

read_data	data.rigid.tnr
Reading data file ...
  orthogonal box = (-31.122 -31.122 -31.122) to (31.122 31.122 31.122)
  2 by 2 by 2 MPI processor grid
  reading atoms ...
  5600 atoms
  scanning bonds ...
  1 = max bonds/atom
  orthogonal box = (-31.122 -31.122 -31.122) to (31.122 31.122 31.122)
  2 by 2 by 2 MPI processor grid
  reading bonds ...
  1600 bonds
Finding 1-2 1-3 1-4 neighbors ...
  special bond factors lj:    0        0        0       
  special bond factors coul:  0        0        0       
     2 = max # of 1-2 neighbors
     1 = max # of 1-3 neighbors
     1 = max # of 1-4 neighbors
     2 = max # of special neighbors
  special bonds CPU = 0.001 seconds
  read_data CPU = 0.027 seconds

# Specify bond parameters

bond_style	fene
bond_coeff	1 30.0 1.5 1.0 1.0

special_bonds	fene
Finding 1-2 1-3 1-4 neighbors ...
  special bond factors lj:    0        1        1       
  special bond factors coul:  0        1        1       
     2 = max # of 1-2 neighbors
     2 = max # of special neighbors
  special bonds CPU = 0.000 seconds

# Specify initial velocities

velocity	all create 1.4 109345

# Specify rigid components

group		rods type 2
4000 atoms in group rods
group		tethers	subtract all rods
1600 atoms in group tethers

neigh_modify 	exclude	molecule/intra rods delay 0 every 1

# Specify the pair potentials

pair_style	lj/cut	2.5
pair_modify	shift	yes
pair_coeff	* * 1.0	1.0 1.122
pair_coeff	2 2 1.0 1.0 2.5

# Specify output

thermo	100
thermo_style custom step temp pe etotal press enthalpy lx ly lz pxx pyy pzz
thermo_modify flush yes lost warn

timestep	0.005

fix	1	rods	rigid molecule
  800 rigid bodies with 4000 atoms
fix	2	tethers	nve
fix	3	all	langevin 1.4 1.4 1.0 437624

run	5000

CITE-CITE-CITE-CITE-CITE-CITE-CITE-CITE-CITE-CITE-CITE-CITE-CITE

Your simulation uses code contributions which should be cited:

- Type Label Framework: https://doi.org/10.1021/acs.jpcb.3c08419

@Article{Gissinger24,
 author = {Jacob R. Gissinger, Ilia Nikiforov, Yaser Afshar, Brendon Waters, Moon-ki Choi, Daniel S. Karls, Alexander Stukowski, Wonpil Im, Hendrik Heinz, Axel Kohlmeyer, and Ellad B. Tadmor},
 title = {Type Label Framework for Bonded Force Fields in LAMMPS},
 journal = {J. Phys. Chem. B},
 year =    2024,
 volume =  128,
 number =  13,
 pages =   {3282--3297}
}

CITE-CITE-CITE-CITE-CITE-CITE-CITE-CITE-CITE-CITE-CITE-CITE-CITE

Generated 0 of 1 mixed pair_coeff terms from geometric mixing rule
Neighbor list info ...
  update: every = 1 steps, delay = 0 steps, check = yes
  max neighbors/atom: 2000, page size: 100000
  master list distance cutoff = 2.8
  ghost atom cutoff = 2.8
  binsize = 1.4, bins = 45 45 45
  1 neighbor lists, perpetual/occasional/extra = 1 0 0
  (1) pair lj/cut, perpetual
      attributes: half, newton on
      pair build: half/bin/newton
      stencil: half/bin/3d
      bin: standard
Per MPI rank memory allocation (min/avg/max) = 7.445 | 7.448 | 7.451 Mbytes
   Step          Temp          PotEng         TotEng         Press         Enthalpy          Lx             Ly             Lz            Pxx            Pyy            Pzz      
         0   1.3963219      5.9478449      7.0445809      0.048565317    9.13595        62.244         62.244         62.244         0.0091983659   0.11850113     0.017996458  
       100   1.3815526      5.9617944      7.04693        0.023057124    8.0398393      62.244         62.244         62.244         0.0062946496   0.046495566    0.016381157  
       200   1.3865483      5.9871855      7.0762449      0.00056516442  7.1005826      62.244         62.244         62.244        -0.0075237322   0.0054216692   0.0037975562 
       300   1.3881513      5.9822898      7.0726083      0.0069920835   7.3737085      62.244         62.244         62.244         0.0080307095   0.0024605856   0.010484955  
       400   1.3805188      5.9896219      7.0739454      0.014454006    7.6963785      62.244         62.244         62.244         0.020977338    0.010990028    0.011394651  
       500   1.4139549      5.9815744      7.0921603      0.0035537046   7.2451935      62.244         62.244         62.244        -0.00097348887  0.0071875143   0.0044470884 
       600   1.3849993      5.9847195      7.0725623      0.0087253257   7.4483011      62.244         62.244         62.244         0.0079522284   0.0071948805   0.011028868  
       700   1.4201424      5.983008       7.0984538      0.012879614    7.6530889      62.244         62.244         62.244         0.01358885     0.014514751    0.010535243  
       800   1.4050078      5.9843793      7.0879377      0.0015832909   7.1561189      62.244         62.244         62.244        -0.00068884329 -3.9037004e-05  0.005477753  
       900   1.4070664      5.9885704      7.0937457      0.0090288859   7.4825568      62.244         62.244         62.244         0.0051642561   0.01088401     0.011038392  
      1000   1.3958895      5.9754363      7.0718328     -0.0014006857   7.011515       62.244         62.244         62.244        -0.0068594786   0.0012349667   0.0014224548 
      1100   1.434154       5.9670293      7.0934805      0.0030926151   7.2266578      62.244         62.244         62.244         0.0048951745   0.00045967423  0.0039229966 
      1200   1.4136038      5.9814389      7.091749      -3.1932522e-05  7.0903739      62.244         62.244         62.244         0.0010331081   0.0004654415  -0.0015943471 
      1300   1.42463        5.9709265      7.089897       0.0040878115   7.2659305      62.244         62.244         62.244         0.0061720569   0.0057035349   0.00038784272
      1400   1.4660113      5.9639298      7.1154032      0.0057044769   7.3610551      62.244         62.244         62.244         0.010127594    0.0069169854   6.8851376e-05
      1500   1.4026352      5.9693135      7.0710083      0.0085734748   7.440208       62.244         62.244         62.244         0.0065452962   0.012340426    0.0068347019 
      1600   1.4067903      5.975697       7.0806555      0.0054734007   7.3163566      62.244         62.244         62.244        -0.001955129    0.011850476    0.0065248553 
      1700   1.4148119      5.9548112      7.0660701      0.0042176318   7.2476941      62.244         62.244         62.244         0.003021493    0.0041490338   0.0054823686 
      1800   1.3984161      5.9511961      7.049577       0.010618474    7.5068406      62.244         62.244         62.244         0.0048365897   0.018355694    0.0086631377 
      1900   1.3740665      5.955697       7.0349526      0.0052547806   7.2612393      62.244         62.244         62.244         0.0018033687   0.0067900592   0.0071709139 
      2000   1.4427151      5.9340487      7.0672241      0.0044335242   7.258145       62.244         62.244         62.244         0.0052870637   0.0068061722   0.0012073368 
      2100   1.4280267      5.9481618      7.0698003      0.0092659998   7.4688222      62.244         62.244         62.244         0.0071460399   0.0070190708   0.013632889  
      2200   1.3808083      5.9537892      7.0383402     -0.0011654095   6.9881542      62.244         62.244         62.244        -0.00036959312 -0.0037975299   0.00067089444
      2300   1.4069092      5.9446369      7.0496887      0.0076078859   7.3773072      62.244         62.244         62.244         0.0084916342   0.0053459449   0.0089860785 
      2400   1.429277       5.9480433      7.0706638      0.0061199937   7.3342092      62.244         62.244         62.244         0.002855344    0.0072542583   0.008250379  
      2500   1.3948047      5.9466935      7.0422378      0.0015628652   7.1095395      62.244         62.244         62.244         0.00024515514  0.0052702023  -0.00082676172
      2600   1.3901038      5.937153       7.029005       0.0015081601   7.093951       62.244         62.244         62.244         0.00092961675  0.00073365502  0.0028612085 
      2700   1.3925603      5.938459       7.0322406      0.0019999403   7.118364       62.244         62.244         62.244         0.0052953117   0.0035244681  -0.002819959  
      2800   1.3880804      5.9292714      7.0195342      0.0060014615   7.2779753      62.244         62.244         62.244         0.0055084896   0.010842193    0.0016537015 
      2900   1.3945083      5.925954       7.0212655      0.0049176801   7.2330357      62.244         62.244         62.244         0.0056872038   0.0038455534   0.0052202829 
      3000   1.3962354      5.9280533      7.0247214      0.0023891661   7.1276061      62.244         62.244         62.244         0.0013588772   0.0021996957   0.0036089253 
      3100   1.3784838      5.9152388      6.997964       0.0050094186   7.2136847      62.244         62.244         62.244         0.004839131    0.0096113465   0.00057777816
      3200   1.4058057      5.9116538      7.0158389      0.0027795609   7.1355351      62.244         62.244         62.244         0.00220354     0.0023289906   0.0038061521 
      3300   1.4270865      5.9058944      7.0267944      0.0033024988   7.16901        62.244         62.244         62.244         0.010633229   -0.0007298646   4.13228e-06  
      3400   1.4287572      5.9156933      7.0379055      0.0034275553   7.1855064      62.244         62.244         62.244         0.0059318616   0.0042543849   9.6419313e-05
      3500   1.424229       5.904491       7.0231466      0.0061801134   7.289281       62.244         62.244         62.244         0.0065188777   0.005326469    0.0066949934 
      3600   1.3879086      5.9113839      7.0015117     -0.00057459378  6.976768       62.244         62.244         62.244        -0.00066760031  0.00085690466 -0.0019130857 
      3700   1.4068784      5.8959284      7.000956       0.0082686995   7.3570311      62.244         62.244         62.244         0.0084885636   0.0083078159   0.0080097189 
      3800   1.4221261      5.8926754      7.0096793      0.0044999555   7.203461       62.244         62.244         62.244         0.0078321132   0.0059897819  -0.00032202878
      3900   1.3760824      5.8984035      6.9792424      0.0033510132   7.1235472      62.244         62.244         62.244         0.0023076062   0.00086980914  0.0068756244 
      4000   1.3715531      5.9102203      6.9875018      0.0046937365   7.1896283      62.244         62.244         62.244         0.0083093901   0.0053765508   0.00039526856
      4100   1.385685       5.9023737      6.9907551      0.0011166911   7.0388432      62.244         62.244         62.244         0.00067979515 -0.0007794202   0.0034496984 
      4200   1.4043615      5.8998064      7.0028571      0.0094842346   7.4112768      62.244         62.244         62.244         0.010590242    0.0053067197   0.012555742  
      4300   1.4172259      5.8857051      6.9988601      0.0027850736   7.1187938      62.244         62.244         62.244         0.0060229948   0.0016478688   0.0006843571 
      4400   1.4237129      5.9087991      7.0270493      0.0042458314   7.2098876      62.244         62.244         62.244         0.005055326    0.00091893417  0.0067632341 
      4500   1.3817327      5.9107805      6.9960575      0.006455327    7.2740433      62.244         62.244         62.244         0.0054064245   0.0082961338   0.0056634228 
      4600   1.4149145      5.9040771      7.0154167      0.011826507    7.5247017      62.244         62.244         62.244         0.013466921    0.010073637    0.011938962  
      4700   1.4260941      5.9043306      7.024451      -0.0008707028   6.986956       62.244         62.244         62.244         0.0054961837  -0.0066731009  -0.0014351912 
      4800   1.3966553      5.8911113      6.9881092      0.010392799    7.4356545      62.244         62.244         62.244         0.011084169    0.0090272978   0.011066931  
      4900   1.3753185      5.8885299      6.9687689      0.010730422    7.4308532      62.244         62.244         62.244         0.015008065    0.0095575446   0.0076256575 
      5000   1.4013545      5.900503       7.0011919     -0.0041731819   6.8214821      62.244         62.244         62.244        -0.0072702147  -8.6139292e-05 -0.0051631917 
Loop time of 4.72231 on 8 procs for 5000 steps with 5600 atoms

Performance: 457403.311 tau/day, 1058.804 timesteps/s, 5.929 Matom-step/s
93.3% CPU use with 8 MPI tasks x no OpenMP threads

MPI task timing breakdown:
Section |  min time  |  avg time  |  max time  |%varavg| %total
---------------------------------------------------------------
Pair    | 0.061044   | 0.10645    | 0.15169    |  12.0 |  2.25
Bond    | 0.026845   | 0.039993   | 0.05427    |   6.1 |  0.85
Neigh   | 0.50593    | 0.51474    | 0.52694    |   0.8 | 10.90
Comm    | 0.43912    | 0.49004    | 0.54402    |   6.2 | 10.38
Output  | 0.004434   | 0.005514   | 0.0066695  |   1.0 |  0.12
Modify  | 3.0003     | 3.0976     | 3.2218     |   5.1 | 65.60
Other   |            | 0.4679     |            |       |  9.91

Nlocal:            700 ave         947 max         472 min
Histogram: 3 1 0 0 0 0 0 0 1 3
Nghost:        449.625 ave         531 max         337 min
Histogram: 1 0 0 2 1 0 1 0 1 2
Neighs:            594 ave         916 max         302 min
Histogram: 2 1 1 0 0 0 0 2 1 1

Total # of neighbors = 4752
Ave neighs/atom = 0.84857143
Ave special neighs/atom = 0.57142857
Neighbor list builds = 761
Dangerous builds = 0

# Replace fix rigid and fix langevin with new ones

unfix	1
unfix	3

fix	3	tethers langevin 1.4 1.4 1.0 198450

# Test different integrators for rods

fix	1 rods	rigid/nve molecule
  800 rigid bodies with 4000 atoms
print 	"rigid/nve"
rigid/nve
run	1000
Generated 0 of 1 mixed pair_coeff terms from geometric mixing rule
Per MPI rank memory allocation (min/avg/max) = 7.447 | 7.452 | 7.458 Mbytes
   Step          Temp          PotEng         TotEng         Press         Enthalpy          Lx             Ly             Lz            Pxx            Pyy            Pzz      
      5000   1.4013545      5.900503       7.0011919     -0.0088534081   6.6199374      62.244         62.244         62.244        -0.038474586    0.04052875    -0.028614388  
      5100   1.398062       5.9004734      6.9985762     -0.0017280129   6.9241628      62.244         62.244         62.244        -0.0005799711  -0.0014038561  -0.0032002114 
      5200   1.4133543      5.8987816      7.0088957      0.0042069532   7.1900598      62.244         62.244         62.244         0.0074512848   0.00334206     0.0018275148 
      5300   1.3868812      5.9041828      6.9935037      0.0050976908   7.2130256      62.244         62.244         62.244         0.0048679481   0.0030482933   0.0073768311 
      5400   1.395923       5.8871973      6.98362        0.00083363132  7.0195187      62.244         62.244         62.244         0.0061271575  -0.0014486997  -0.0021775639 
      5500   1.4111819      5.8777523      6.9861601      0.0063560643   7.2598714      62.244         62.244         62.244         0.010670688    0.0051652323   0.0032322721 
      5600   1.4109498      5.8821805      6.990406       0.0037785835   7.1531232      62.244         62.244         62.244         0.0073854583   0.0025013036   0.0014489887 
      5700   1.3676092      5.9160595      6.9902433      0.0051217472   7.2108012      62.244         62.244         62.244         0.002884077    0.0058532456   0.006627919  
      5800   1.4330823      5.874286       6.9998954      0.00087883907  7.0377408      62.244         62.244         62.244         0.0040721216  -0.0018345253   0.00039892091
      5900   1.4176174      5.8887201      7.0021826      0.0042148721   7.1836877      62.244         62.244         62.244         0.0010086882   0.0033985932   0.0082373349 
      6000   1.4079202      5.878439       6.9842849      0.0064297531   7.2611695      62.244         62.244         62.244         0.0077789265   0.007457495    0.0040528379 
Loop time of 1.1287 on 8 procs for 1000 steps with 5600 atoms

Performance: 382740.887 tau/day, 885.974 timesteps/s, 4.961 Matom-step/s
93.0% CPU use with 8 MPI tasks x no OpenMP threads

MPI task timing breakdown:
Section |  min time  |  avg time  |  max time  |%varavg| %total
---------------------------------------------------------------
Pair    | 0.010696   | 0.021223   | 0.032969   |   5.7 |  1.88
Bond    | 0.0039319  | 0.0059238  | 0.0080868  |   2.2 |  0.52
Neigh   | 0.11782    | 0.11855    | 0.11905    |   0.1 | 10.50
Comm    | 0.078883   | 0.087851   | 0.09594    |   2.1 |  7.78
Output  | 0.00099132 | 0.0011756  | 0.0015283  |   0.5 |  0.10
Modify  | 0.72872    | 0.74566    | 0.77553    |   1.9 | 66.06
Other   |            | 0.1483     |            |       | 13.14

Nlocal:            700 ave         945 max         470 min
Histogram: 4 0 0 0 0 0 0 0 2 2
Nghost:        425.875 ave         513 max         346 min
Histogram: 1 2 0 1 0 0 2 0 1 1
Neighs:        671.375 ave        1049 max         320 min
Histogram: 3 1 0 0 0 0 0 1 2 1

Total # of neighbors = 5371
Ave neighs/atom = 0.95910714
Ave special neighs/atom = 0.57142857
Neighbor list builds = 153
Dangerous builds = 0
unfix	1

fix	1 rods	rigid/nvt molecule temp 1.4 1.4 1.0
  800 rigid bodies with 4000 atoms
print 	"rigid/nvt"
rigid/nvt
run	1000
Generated 0 of 1 mixed pair_coeff terms from geometric mixing rule
Per MPI rank memory allocation (min/avg/max) = 7.447 | 7.452 | 7.458 Mbytes
   Step          Temp          PotEng         TotEng         Press         Enthalpy          Lx             Ly             Lz            Pxx            Pyy            Pzz      
      6000   1.4079202      5.878439       6.9842849      0.013849429    7.5806831      62.244         62.244         62.244         0.017868809    0.059433045   -0.035753567  
      6100   1.3767691      5.8804365      6.9618148      0.0027589161   7.0806221      62.244         62.244         62.244         0.0016686626   0.0044073875   0.0022006983 
      6200   1.4037511      5.885922       6.9884933      0.0034435677   7.1367837      62.244         62.244         62.244         0.004568224    0.0049558278   0.00080665151
      6300   1.4151971      5.878651       6.9902125      0.0075658537   7.316021       62.244         62.244         62.244         0.0047349551   0.0057717048   0.012190901  
      6400   1.422471       5.8884054      7.0056802      0.0014547452   7.0683259      62.244         62.244         62.244        -0.0011411637   0.002810636    0.0026947634 
      6500   1.4362838      5.8822868      7.0104108      0.0053531889   7.2409352      62.244         62.244         62.244         0.007553727    0.0014859887   0.0070198508 
      6600   1.4178134      5.8803357      6.9939522      0.0018209133   7.0723662      62.244         62.244         62.244         0.0010477878   0.0042374407   0.00017751148
      6700   1.3995352      5.8843322      6.9835922      0.0020050973   7.0699377      62.244         62.244         62.244         0.00092828173  0.0036868647   0.0014001453 
      6800   1.420259       5.8850929      7.0006303      0.0038821482   7.1678073      62.244         62.244         62.244         0.0028354937   0.0012521518   0.0075587992 
      6900   1.4274687      5.8618422      6.9830424      0.0089693463   7.3692895      62.244         62.244         62.244         0.0086716607   0.01226993     0.0059664484 
      7000   1.3853065      5.8740935      6.9621775      0.00642382     7.2388066      62.244         62.244         62.244         0.0061948669   0.0044907344   0.0085858586 
Loop time of 1.20509 on 8 procs for 1000 steps with 5600 atoms

Performance: 358479.520 tau/day, 829.814 timesteps/s, 4.647 Matom-step/s
93.2% CPU use with 8 MPI tasks x no OpenMP threads

MPI task timing breakdown:
Section |  min time  |  avg time  |  max time  |%varavg| %total
---------------------------------------------------------------
Pair    | 0.010631   | 0.024438   | 0.041816   |   8.1 |  2.03
Bond    | 0.0041319  | 0.006254   | 0.0083105  |   2.3 |  0.52
Neigh   | 0.11298    | 0.11358    | 0.11415    |   0.1 |  9.43
Comm    | 0.0628     | 0.098531   | 0.1232     |   7.6 |  8.18
Output  | 0.0009508  | 0.001254   | 0.0017123  |   0.7 |  0.10
Modify  | 0.74564    | 0.80345    | 0.85526    |   3.5 | 66.67
Other   |            | 0.1576     |            |       | 13.08

Nlocal:            700 ave         961 max         460 min
Histogram: 3 1 0 0 0 0 0 1 1 2
Nghost:         404.75 ave         460 max         348 min
Histogram: 3 1 0 0 0 0 0 1 0 3
Neighs:        691.625 ave        1090 max         278 min
Histogram: 2 1 0 1 0 0 0 1 1 2

Total # of neighbors = 5533
Ave neighs/atom = 0.98803571
Ave special neighs/atom = 0.57142857
Neighbor list builds = 151
Dangerous builds = 0
unfix	1

compute	myTemp all temp

fix	1 rods	rigid/npt molecule temp 1.4 1.4 1.0 iso 0.05 0.05 1.0         dilate all
  800 rigid bodies with 4000 atoms
print 	"rigid/npt iso"
rigid/npt iso
fix_modify 1 temp myTemp

run	1000
Generated 0 of 1 mixed pair_coeff terms from geometric mixing rule
Per MPI rank memory allocation (min/avg/max) = 7.447 | 7.452 | 7.458 Mbytes
   Step          Temp          PotEng         TotEng         Press         Enthalpy          Lx             Ly             Lz            Pxx            Pyy            Pzz      
      7000   1.3853065      5.8740935      6.9621775      0.0026718024   7.0772334      62.244         62.244         62.244         0.0033569561   0.0049672834  -0.00030883215
      7100   1.446624       5.8659225      7.0021681      0.014079547    7.4671209      56.973044      56.973044      56.973044      0.012517354    0.014287803    0.015433482  
      7200   1.5484284      5.8142781      7.0304857      0.019742275    7.4764083      50.197657      50.197657      50.197657      0.022386438    0.02504486     0.011795529  
      7300   1.5461289      5.7834701      6.9978715      0.025010802    7.4074778      45.096451      45.096451      45.096451      0.014810619    0.029454226    0.030767561  
      7400   1.6006274      5.7491578      7.0063648      0.04426139     7.5677312      41.412977      41.412977      41.412977      0.053226476    0.038927442    0.040630252  
      7500   1.5741328      5.7255289      6.9619259      0.04205435     7.4002752      38.791135      38.791135      38.791135      0.045975139    0.047007159    0.033180752  
      7600   1.5297187      5.6953763      6.8968884      0.075698314    7.5722165      36.830324      36.830324      36.830324      0.084316084    0.062768558    0.0800103    
      7700   1.5508111      5.6462063      6.8642853      0.067498091    7.3944748      35.300095      35.300095      35.300095      0.058458931    0.073089156    0.070946187  
      7800   1.5355154      5.6000929      6.806158       0.058919071    7.2254863      34.158237      34.158237      34.158237      0.074267857    0.059131782    0.043357576  
      7900   1.5177458      5.5596434      6.7517514      0.054845801    7.1144979      33.333631      33.333631      33.333631      0.04061045     0.0543716      0.069555352  
      8000   1.486018       5.5432547      6.7104423      0.020011817    6.8335187      32.535598      32.535598      32.535598      0.018159454    0.063340032   -0.021464036  
Loop time of 1.72567 on 8 procs for 1000 steps with 5600 atoms

Performance: 250338.053 tau/day, 579.486 timesteps/s, 3.245 Matom-step/s
94.6% CPU use with 8 MPI tasks x no OpenMP threads

MPI task timing breakdown:
Section |  min time  |  avg time  |  max time  |%varavg| %total
---------------------------------------------------------------
Pair    | 0.028624   | 0.055776   | 0.088828   |   9.0 |  3.23
Bond    | 0.0052624  | 0.00756    | 0.010106   |   2.1 |  0.44
Neigh   | 0.39729    | 0.40344    | 0.40793    |   0.7 | 23.38
Comm    | 0.12034    | 0.14911    | 0.1699     |   4.6 |  8.64
Output  | 0.00077052 | 0.00087038 | 0.0013717  |   0.0 |  0.05
Modify  | 0.89816    | 0.93649    | 0.98267    |   2.7 | 54.27
Other   |            | 0.1724     |            |       |  9.99

Nlocal:            700 ave         940 max         495 min
Histogram: 1 3 0 0 0 0 0 2 1 1
Nghost:        988.625 ave        1114 max         886 min
Histogram: 1 2 1 1 0 0 0 1 0 2
Neighs:           3085 ave        5020 max        1447 min
Histogram: 1 2 1 0 0 0 2 1 0 1

Total # of neighbors = 24680
Ave neighs/atom = 4.4071429
Ave special neighs/atom = 0.57142857
Neighbor list builds = 335
Dangerous builds = 0
unfix	1

fix	1 rods	rigid/npt molecule temp 1.4 1.4 1.0 x 0.05 0.05 1.0 dilate all
  800 rigid bodies with 4000 atoms
print 	"rigid/npt x"
rigid/npt x
run	1000
Generated 0 of 1 mixed pair_coeff terms from geometric mixing rule
Per MPI rank memory allocation (min/avg/max) = 7.452 | 7.46 | 7.472 Mbytes
   Step          Temp          PotEng         TotEng         Press         Enthalpy          Lx             Ly             Lz            Pxx            Pyy            Pzz      
      8000   1.486018       5.5432547      6.7104423      0.015710714    6.8070661      32.535598      32.535598      32.535598      0.10095538     0.0079561103  -0.061779352  
      8100   1.4701907      5.5340061      6.6887622      0.067871691    7.1055839      32.488681      32.535598      32.535598      0.043960959    0.098886945    0.060767169  
      8200   1.4473508      5.5223133      6.6591298      0.026470997    6.8195198      32.053641      32.535598      32.535598      0.086944311   -0.023373746    0.015842427  
      8300   1.4296064      5.498389       6.6212683      0.062689101    6.991102       31.209367      32.535598      32.535598      0.075432108    0.076607222    0.036027975  
      8400   1.4128462      5.4897911      6.5995061      0.0048802336   6.6275117      30.358099      32.535598      32.535598      0.01557993    -0.0046996778   0.0037604491 
      8500   1.4134623      5.4719189      6.5821178     -0.0069216587   6.5434024      29.58993       32.535598      32.535598      0.0041835648  -0.028396833    0.0034482922 
      8600   1.4323578      5.4374446      6.5624849      0.10374002     7.1271797      28.796378      32.535598      32.535598      0.060024171    0.11277059     0.1384253    
      8700   1.4340339      5.4303616      6.5567184     -0.0081227357   6.513549       28.115443      32.535598      32.535598      0.049449475   -0.093126924    0.019309243  
      8800   1.4159276      5.4356512      6.5477864      0.0067943259   6.5832784      27.634672      32.535598      32.535598      0.0024289441   0.030577673   -0.01262364   
      8900   1.4633037      5.4089302      6.5582769      0.067567066    6.9055291      27.188194      32.535598      32.535598      0.096675333    0.058117253    0.047908613  
      9000   1.4564433      5.3728799      6.5168381      0.058934043    6.8145539      26.724281      32.535598      32.535598      0.058197315    0.054696239    0.063908576  
Loop time of 1.39707 on 8 procs for 1000 steps with 5600 atoms

Performance: 309217.751 tau/day, 715.782 timesteps/s, 4.008 Matom-step/s
95.8% CPU use with 8 MPI tasks x no OpenMP threads

MPI task timing breakdown:
Section |  min time  |  avg time  |  max time  |%varavg| %total
---------------------------------------------------------------
Pair    | 0.047627   | 0.078067   | 0.12007    |   9.0 |  5.59
Bond    | 0.0052809  | 0.0068765  | 0.0085925  |   1.6 |  0.49
Neigh   | 0.29065    | 0.29128    | 0.29182    |   0.1 | 20.85
Comm    | 0.093863   | 0.12934    | 0.15583    |   5.7 |  9.26
Output  | 0.0006398  | 0.00069972 | 0.0010164  |   0.0 |  0.05
Modify  | 0.8224     | 0.83506    | 0.85143    |   1.0 | 59.77
Other   |            | 0.05576    |            |       |  3.99

Nlocal:            700 ave         932 max         538 min
Histogram: 2 2 0 0 0 1 2 0 0 1
Nghost:        1086.88 ave        1196 max        1015 min
Histogram: 2 2 1 0 0 0 1 0 1 1
Neighs:        3874.75 ave        6220 max        2290 min
Histogram: 2 1 1 0 0 2 1 0 0 1

Total # of neighbors = 30998
Ave neighs/atom = 5.5353571
Ave special neighs/atom = 0.57142857
Neighbor list builds = 173
Dangerous builds = 0
unfix	1

fix	1 rods	rigid/nph molecule iso 0.05 0.05 1.0 dilate all
  800 rigid bodies with 4000 atoms
print 	"rigid/nph iso"
rigid/nph iso
run	1000
Generated 0 of 1 mixed pair_coeff terms from geometric mixing rule
Per MPI rank memory allocation (min/avg/max) = 7.457 | 7.464 | 7.474 Mbytes
   Step          Temp          PotEng         TotEng         Press         Enthalpy          Lx             Ly             Lz            Pxx            Pyy            Pzz      
      9000   1.4564433      5.3728799      6.5168381     -0.11724173     5.9245708      26.724281      32.535598      32.535598     -0.20888135    -0.11082304    -0.032020795  
      9100   1.4569682      5.3529345      6.4973049      0.019804268    6.5963868      26.638267      32.430881      32.430881      0.013990721    0.036863671    0.0085584124 
      9200   1.478729       5.3422301      6.5036926      0.064538921    6.8184899      26.413784      32.157583      32.157583      0.056614551    0.11839398     0.018608226  
      9300   1.4670603      5.3226978      6.4749951      0.017376224    6.5576744      26.196383      31.892907      31.892907     -0.0090645131   0.03205902     0.029134164  
      9400   1.4765343      5.3103848      6.4701234      0.09472954     6.9050659      25.886678      31.515855      31.515855      0.097857156    0.093282332    0.093049131  
      9500   1.455601       5.3189994      6.462296       0.068096056    6.7669168      25.662959      31.243488      31.243488      0.07877717     0.062419967    0.063091031  
      9600   1.4566703      5.2895163      6.4336528      0.031237307    6.5711773      25.526798      31.077718      31.077718     -0.0013382744   0.065263553    0.029786641  
      9700   1.4731635      5.2629086      6.4199996      0.04656288     6.6216459      25.386978      30.907493      30.907493      0.03515221     0.021074686    0.083461745  
      9800   1.4349495      5.2673185      6.3943945      0.042619355    6.5769203      25.292981      30.793056      30.793056     -0.0060770162   0.11051749     0.023417586  
      9900   1.4566719      5.2390998      6.3832375      0.01189512     6.4339186      25.249531      30.740158      30.740158     -0.015305905    0.014876125    0.036115139  
     10000   1.4191737      5.2526126      6.3672975      0.038105463    6.5287904      25.204777      30.685671      30.685671      0.075933704    0.03708296     0.0012997265 
Loop time of 1.64709 on 8 procs for 1000 steps with 5600 atoms

Performance: 262280.103 tau/day, 607.130 timesteps/s, 3.400 Matom-step/s
93.7% CPU use with 8 MPI tasks x no OpenMP threads

MPI task timing breakdown:
Section |  min time  |  avg time  |  max time  |%varavg| %total
---------------------------------------------------------------
Pair    | 0.066635   | 0.1006     | 0.14856    |   9.0 |  6.11
Bond    | 0.0061464  | 0.0075192  | 0.0091982  |   1.3 |  0.46
Neigh   | 0.34576    | 0.34676    | 0.34802    |   0.1 | 21.05
Comm    | 0.14887    | 0.18641    | 0.22053    |   5.0 | 11.32
Output  | 0.00067284 | 0.00076328 | 0.0011084  |   0.0 |  0.05
Modify  | 0.8823     | 0.91512    | 0.94214    |   1.7 | 55.56
Other   |            | 0.08993    |            |       |  5.46

Nlocal:            700 ave         852 max         558 min
Histogram: 1 2 1 0 0 0 1 0 2 1
Nghost:        1191.12 ave        1236 max        1124 min
Histogram: 1 1 0 0 0 1 1 1 1 2
Neighs:         4660.5 ave        6794 max        2988 min
Histogram: 1 3 0 0 0 1 0 1 1 1

Total # of neighbors = 37284
Ave neighs/atom = 6.6578571
Ave special neighs/atom = 0.57142857
Neighbor list builds = 166
Dangerous builds = 0
unfix	1

fix	1 rods	rigid/nph molecule x 0.05 0.05 1.0 y 0.05 0.05 1.0         couple xy dilate all
  800 rigid bodies with 4000 atoms
print 	"rigid/nph xy couple"
rigid/nph xy couple
run	1000
Generated 0 of 1 mixed pair_coeff terms from geometric mixing rule
Per MPI rank memory allocation (min/avg/max) = 7.458 | 7.467 | 7.474 Mbytes
   Step          Temp          PotEng         TotEng         Press         Enthalpy          Lx             Ly             Lz            Pxx            Pyy            Pzz      
     10000   1.4191737      5.2526126      6.3672975      0.11371702     6.8492359      25.204777      30.685671      30.685671      0.1205783      0.40454232    -0.18396957   
     10100   1.4405749      5.2350682      6.3665627      0.052677266    6.5910538      25.274802      30.770923      30.685671      0.040315139    0.094786137    0.022930522  
     10200   1.4406937      5.225896       6.3574837      0.08833132     6.732376       25.22294       30.707785      30.685671      0.11025124     0.030340131    0.12440259   
     10300   1.4435567      5.1945096      6.328346       0.0044898587   6.3472168      25.100243      30.558406      30.685671      0.049840248   -0.035091804   -0.0012788683 
     10400   1.4621819      5.1834574      6.331923       0.018570321    6.4091083      24.960735      30.388562      30.685671      0.039608972    0.034958906   -0.018856915  
     10500   1.4623972      5.1770601      6.3256948      0.085260884    6.6764024      24.831189      30.230845      30.685671      0.017211192    0.10231445     0.13625701   
     10600   1.421025       5.1885718      6.3047108      0.0062430173   6.3304023      24.836933      30.237838      30.685671      0.010511862    0.0033851482   0.0048320419 
     10700   1.4398802      5.1595469      6.2904956      0.067325941    6.566362       24.783238      30.172467      30.685671      0.078435113    0.080105395    0.043437316  
     10800   1.4620778      5.1672318      6.3156156      0.049269022    6.517947       24.811016      30.206286      30.685671      0.020624927    0.082932646    0.044249494  
     10900   1.4275842      5.1689866      6.2902775      0.017247005    6.3613426      24.852564      30.256868      30.685671      0.0766776      0.010050839   -0.034987424  
     11000   1.4793958      5.1544949      6.3164811      0.060900026    6.5699117      24.975873      30.406991      30.685671      0.019386171    0.10546354     0.05785037   
Loop time of 1.69211 on 8 procs for 1000 steps with 5600 atoms

Performance: 255302.361 tau/day, 590.978 timesteps/s, 3.309 Matom-step/s
93.4% CPU use with 8 MPI tasks x no OpenMP threads

MPI task timing breakdown:
Section |  min time  |  avg time  |  max time  |%varavg| %total
---------------------------------------------------------------
Pair    | 0.079784   | 0.11443    | 0.16599    |   8.8 |  6.76
Bond    | 0.0064497  | 0.0075856  | 0.0088649  |   1.1 |  0.45
Neigh   | 0.34677    | 0.34966    | 0.35477    |   0.4 | 20.66
Comm    | 0.16274    | 0.21748    | 0.25369    |   6.9 | 12.85
Output  | 0.00066489 | 0.00076789 | 0.0012496  |   0.0 |  0.05
Modify  | 0.86479    | 0.8899     | 0.9285     |   2.0 | 52.59
Other   |            | 0.1123     |            |       |  6.64

Nlocal:            700 ave         890 max         572 min
Histogram: 3 0 1 0 1 0 1 1 0 1
Nghost:           1267 ave        1334 max        1159 min
Histogram: 1 0 0 0 0 4 0 0 1 2
Neighs:        4981.12 ave        7763 max        2985 min
Histogram: 1 1 2 0 0 2 1 0 0 1

Total # of neighbors = 39849
Ave neighs/atom = 7.1158929
Ave special neighs/atom = 0.57142857
Neighbor list builds = 156
Dangerous builds = 0

Total wall time: 0:00:13
