LAMMPS (7 Feb 2024 - Development - 292747189)
# Tethered nanorods

atom_style	molecular

read_data	data.rigid.tnr
Reading data file ...
  orthogonal box = (-31.122 -31.122 -31.122) to (31.122 31.122 31.122)
  2 by 2 by 2 MPI processor grid
  reading atoms ...
  5600 atoms
  scanning bonds ...
  1 = max bonds/atom
  reading bonds ...
  1600 bonds
Finding 1-2 1-3 1-4 neighbors ...
  special bond factors lj:    0        0        0       
  special bond factors coul:  0        0        0       
     2 = max # of 1-2 neighbors
     1 = max # of 1-3 neighbors
     1 = max # of 1-4 neighbors
     2 = max # of special neighbors
  special bonds CPU = 0.001 seconds
  read_data CPU = 0.031 seconds

# Specify bond parameters

bond_style	fene
bond_coeff	1 30.0 1.5 1.0 1.0

special_bonds	fene
Finding 1-2 1-3 1-4 neighbors ...
  special bond factors lj:    0        1        1       
  special bond factors coul:  0        1        1       
     2 = max # of 1-2 neighbors
     2 = max # of special neighbors
  special bonds CPU = 0.000 seconds

# Specify initial velocities

velocity	all create 1.4 109345

# Specify rigid components

group		rods type 2
4000 atoms in group rods
group		tethers	subtract all rods
1600 atoms in group tethers

neigh_modify 	exclude	molecule/intra rods delay 0 every 1

# Specify the pair potentials

pair_style	lj/cut	2.5
pair_modify	shift	yes
pair_coeff	* * 1.0	1.0 1.122
pair_coeff	2 2 1.0 1.0 2.5

# Specify output

thermo	100
thermo_style custom step temp pe etotal press enthalpy lx ly lz pxx pyy pzz
thermo_modify flush yes lost warn

timestep	0.005

fix	1	rods	rigid molecule
  800 rigid bodies with 4000 atoms
fix	2	tethers	nve
fix	3	all	langevin 1.4 1.4 1.0 437624

run	5000
Generated 0 of 1 mixed pair_coeff terms from geometric mixing rule
Neighbor list info ...
  update: every = 1 steps, delay = 0 steps, check = yes
  max neighbors/atom: 2000, page size: 100000
  master list distance cutoff = 2.8
  ghost atom cutoff = 2.8
  binsize = 1.4, bins = 45 45 45
  1 neighbor lists, perpetual/occasional/extra = 1 0 0
  (1) pair lj/cut, perpetual
      attributes: half, newton on
      pair build: half/bin/newton
      stencil: half/bin/3d
      bin: standard
Per MPI rank memory allocation (min/avg/max) = 7.445 | 7.448 | 7.451 Mbytes
   Step          Temp          PotEng         TotEng         Press         Enthalpy          Lx             Ly             Lz            Pxx            Pyy            Pzz      
         0   1.3963219      5.9478449      7.0445809      0.048565317    9.13595        62.244         62.244         62.244         0.0091983659   0.11850113     0.017996458  
       100   1.3815526      5.9617944      7.04693        0.023057124    8.0398393      62.244         62.244         62.244         0.0062946496   0.046495566    0.016381157  
       200   1.3865483      5.9871855      7.0762449      0.00056516442  7.1005826      62.244         62.244         62.244        -0.0075237322   0.0054216692   0.0037975562 
       300   1.3881513      5.9822898      7.0726083      0.0069920835   7.3737085      62.244         62.244         62.244         0.0080307095   0.0024605856   0.010484955  
       400   1.3805188      5.9896219      7.0739454      0.014454006    7.6963785      62.244         62.244         62.244         0.020977338    0.010990028    0.011394651  
       500   1.4139549      5.9815744      7.0921603      0.0035537046   7.2451935      62.244         62.244         62.244        -0.00097348887  0.0071875143   0.0044470884 
       600   1.3849993      5.9847195      7.0725623      0.0087253257   7.4483011      62.244         62.244         62.244         0.0079522284   0.0071948805   0.011028868  
       700   1.4201424      5.983008       7.0984538      0.012879614    7.6530889      62.244         62.244         62.244         0.01358885     0.014514751    0.010535243  
       800   1.4050078      5.9843793      7.0879377      0.0015832909   7.1561189      62.244         62.244         62.244        -0.00068884329 -3.9037004e-05  0.005477753  
       900   1.4070664      5.9885704      7.0937457      0.0090288859   7.4825568      62.244         62.244         62.244         0.0051642561   0.01088401     0.011038392  
      1000   1.3958895      5.9754363      7.0718328     -0.0014006857   7.011515       62.244         62.244         62.244        -0.0068594786   0.0012349667   0.0014224548 
      1100   1.434154       5.9670293      7.0934805      0.0030926151   7.2266578      62.244         62.244         62.244         0.0048951745   0.00045967423  0.0039229966 
      1200   1.4136038      5.9814389      7.091749      -3.1932522e-05  7.0903739      62.244         62.244         62.244         0.0010331081   0.0004654415  -0.0015943471 
      1300   1.42463        5.9709265      7.089897       0.0040878115   7.2659305      62.244         62.244         62.244         0.0061720569   0.0057035349   0.00038784272
      1400   1.4660113      5.9639298      7.1154032      0.0057044769   7.3610551      62.244         62.244         62.244         0.010127594    0.0069169854   6.8851376e-05
      1500   1.4026352      5.9693135      7.0710083      0.0085734748   7.440208       62.244         62.244         62.244         0.0065452962   0.012340426    0.0068347019 
      1600   1.4067903      5.975697       7.0806555      0.0054734007   7.3163566      62.244         62.244         62.244        -0.001955129    0.011850476    0.0065248553 
      1700   1.4148119      5.9548112      7.0660701      0.0042176318   7.2476941      62.244         62.244         62.244         0.003021493    0.0041490338   0.0054823686 
      1800   1.3984161      5.9511961      7.049577       0.010618474    7.5068406      62.244         62.244         62.244         0.0048365897   0.018355694    0.0086631377 
      1900   1.3740665      5.955697       7.0349526      0.0052547806   7.2612393      62.244         62.244         62.244         0.0018033687   0.0067900592   0.0071709139 
      2000   1.4427151      5.9340487      7.0672241      0.0044335242   7.258145       62.244         62.244         62.244         0.0052870637   0.0068061722   0.0012073368 
      2100   1.4280267      5.9481618      7.0698003      0.0092659998   7.4688222      62.244         62.244         62.244         0.0071460399   0.0070190708   0.013632889  
      2200   1.3808083      5.9537892      7.0383402     -0.0011654095   6.9881542      62.244         62.244         62.244        -0.00036959312 -0.0037975299   0.00067089444
      2300   1.4069092      5.9446369      7.0496887      0.0076078859   7.3773072      62.244         62.244         62.244         0.0084916342   0.0053459449   0.0089860785 
      2400   1.429277       5.9480433      7.0706638      0.0061199937   7.3342092      62.244         62.244         62.244         0.002855344    0.0072542583   0.008250379  
      2500   1.3948047      5.9466935      7.0422378      0.0015628652   7.1095395      62.244         62.244         62.244         0.00024515514  0.0052702023  -0.00082676172
      2600   1.3901038      5.937153       7.029005       0.0015081601   7.093951       62.244         62.244         62.244         0.00092961675  0.00073365502  0.0028612085 
      2700   1.3925603      5.938459       7.0322406      0.0019999403   7.118364       62.244         62.244         62.244         0.0052953117   0.0035244681  -0.002819959  
      2800   1.3880804      5.9292714      7.0195342      0.0060014615   7.2779753      62.244         62.244         62.244         0.0055084896   0.010842193    0.0016537015 
      2900   1.3945083      5.925954       7.0212655      0.00491768     7.2330357      62.244         62.244         62.244         0.0056872038   0.0038455534   0.0052202829 
      3000   1.3962354      5.9280533      7.0247214      0.002389166    7.1276061      62.244         62.244         62.244         0.0013588772   0.0021996957   0.0036089253 
      3100   1.3784838      5.9152388      6.997964       0.0050094186   7.2136847      62.244         62.244         62.244         0.004839131    0.0096113465   0.00057777817
      3200   1.4058057      5.9116538      7.0158389      0.0027795609   7.1355351      62.244         62.244         62.244         0.00220354     0.0023289906   0.0038061521 
      3300   1.4270865      5.9058944      7.0267944      0.0033024989   7.16901        62.244         62.244         62.244         0.010633229   -0.00072986455  4.1323037e-06
      3400   1.4287572      5.9156933      7.0379055      0.0034275553   7.1855064      62.244         62.244         62.244         0.0059318616   0.0042543849   9.6419309e-05
      3500   1.424229       5.904491       7.0231466      0.0061801137   7.289281       62.244         62.244         62.244         0.006518878    0.0053264697   0.0066949934 
      3600   1.3879086      5.9113839      7.0015117     -0.00057459395  6.976768       62.244         62.244         62.244        -0.00066760029  0.00085690422 -0.0019130858 
      3700   1.4068784      5.8959284      7.000956       0.0082686994   7.3570311      62.244         62.244         62.244         0.0084885634   0.0083078157   0.008009719  
      3800   1.4221261      5.8926754      7.0096793      0.0044999555   7.203461       62.244         62.244         62.244         0.0078321135   0.0059897818  -0.00032202878
      3900   1.3760824      5.8984035      6.9792424      0.0033510132   7.1235472      62.244         62.244         62.244         0.0023076065   0.00086980941  0.0068756238 
      4000   1.3715531      5.9102203      6.9875018      0.0046937317   7.1896281      62.244         62.244         62.244         0.0083093867   0.0053765454   0.00039526317
      4100   1.385685       5.9023738      6.9907551      0.0011166848   7.0388429      62.244         62.244         62.244         0.00067979406 -0.00077942786  0.0034496882 
      4200   1.4043615      5.8998064      7.0028571      0.009484246    7.4112773      62.244         62.244         62.244         0.010590241    0.0053067442   0.012555753  
      4300   1.4172259      5.8857051      6.9988602      0.002785073    7.1187938      62.244         62.244         62.244         0.006022993    0.0016478759   0.00068435004
      4400   1.423713       5.908799       7.0270493      0.0042458353   7.2098878      62.244         62.244         62.244         0.0050553434   0.00091893435  0.0067632282 
      4500   1.3817327      5.9107804      6.9960574      0.0064553142   7.2740427      62.244         62.244         62.244         0.0054063841   0.0082961526   0.0056634058 
      4600   1.4149148      5.9040764      7.0154162      0.01182619     7.5246876      62.244         62.244         62.244         0.013466332    0.010073338    0.011938902  
      4700   1.4260942      5.9043286      7.0244493     -0.00087073914  6.9869526      62.244         62.244         62.244         0.0054959883  -0.0066730471  -0.0014351586 
      4800   1.3966577      5.8911114      6.9881112      0.0103926      7.4356479      62.244         62.244         62.244         0.011083387    0.0090273982   0.011067014  
      4900   1.3753216      5.8885311      6.9687725      0.010729914    7.4308349      62.244         62.244         62.244         0.015007551    0.0095563532   0.007625838  
      5000   1.401355       5.9005087      7.001198      -0.0041722315   6.8215291      62.244         62.244         62.244        -0.0072696558  -8.56448e-05   -0.005161394  
Loop time of 2.95466 on 8 procs for 5000 steps with 5600 atoms

Performance: 731048.339 tau/day, 1692.242 timesteps/s, 9.477 Matom-step/s
92.5% CPU use with 8 MPI tasks x no OpenMP threads

MPI task timing breakdown:
Section |  min time  |  avg time  |  max time  |%varavg| %total
---------------------------------------------------------------
Pair    | 0.038489   | 0.066776   | 0.095611   |   9.4 |  2.26
Bond    | 0.017621   | 0.028898   | 0.038978   |   5.2 |  0.98
Neigh   | 0.39293    | 0.39501    | 0.39677    |   0.2 | 13.37
Comm    | 0.25214    | 0.28145    | 0.31742    |   5.3 |  9.53
Output  | 0.0027313  | 0.0033938  | 0.0043341  |   0.8 |  0.11
Modify  | 2.0147     | 2.0558     | 2.1105     |   2.7 | 69.58
Other   |            | 0.1233     |            |       |  4.17

Nlocal:            700 ave         947 max         472 min
Histogram: 3 1 0 0 0 0 0 0 1 3
Nghost:        449.625 ave         531 max         337 min
Histogram: 1 0 0 2 1 0 1 0 1 2
Neighs:            594 ave         916 max         302 min
Histogram: 2 1 1 0 0 0 0 2 1 1

Total # of neighbors = 4752
Ave neighs/atom = 0.84857143
Ave special neighs/atom = 0.57142857
Neighbor list builds = 761
Dangerous builds = 0

# Replace fix rigid and fix langevin with new ones

unfix	1
unfix	3

fix	3	tethers langevin 1.4 1.4 1.0 198450

# Test different integrators for rods

fix	1 rods	rigid/nve molecule
  800 rigid bodies with 4000 atoms
print 	"rigid/nve"
rigid/nve
run	1000
Generated 0 of 1 mixed pair_coeff terms from geometric mixing rule
Per MPI rank memory allocation (min/avg/max) = 7.447 | 7.452 | 7.458 Mbytes
   Step          Temp          PotEng         TotEng         Press         Enthalpy          Lx             Ly             Lz            Pxx            Pyy            Pzz      
      5000   1.401355       5.9005087      7.001198      -0.0088491963   6.6201249      62.244         62.244         62.244        -0.038506704    0.040506636   -0.028547521  
      5100   1.3980562      5.9004827      6.9985809     -0.0017286913   6.9241383      62.244         62.244         62.244        -0.00057933392 -0.0014042332  -0.0032025067 
      5200   1.4133614      5.8987831      7.0089028      0.0042081381   7.1901179      62.244         62.244         62.244         0.007453851    0.0033416442   0.0018289192 
      5300   1.3868644      5.9042067      6.9935144      0.0050889734   7.212661       62.244         62.244         62.244         0.0048662081   0.0030404537   0.0073602585 
      5400   1.3959242      5.8871511      6.9835748      0.00085149959  7.0202429      62.244         62.244         62.244         0.0061418565  -0.001437467   -0.0021498907 
      5500   1.4111914      5.8777425      6.9861577      0.0063567974   7.2599006      62.244         62.244         62.244         0.010675145    0.0051672572   0.0032279906 
      5600   1.3988614      5.8815857      6.9803164      0.0050031727   7.1957681      62.244         62.244         62.244         0.007840592    0.0030856141   0.0040833121 
      5700   1.3802305      5.8934185      6.9775157      0.0061319819   7.2415773      62.244         62.244         62.244         0.0088269382   0.0046972141   0.0048717933 
      5800   1.4094901      5.8925476      6.9996266      0.0011249086   7.0480686      62.244         62.244         62.244        -0.00056758338  0.0067692436  -0.0028269346 
      5900   1.3795607      5.8897918      6.9733629     -0.0019540328   6.8892163      62.244         62.244         62.244        -0.0056420241   0.00017709176 -0.00039716612
      6000   1.3953358      5.8896003      6.9855618      0.0066270955   7.2709445      62.244         62.244         62.244         0.0059726812   0.0071318971   0.0067767082 
Loop time of 0.684201 on 8 procs for 1000 steps with 5600 atoms

Performance: 631393.807 tau/day, 1461.560 timesteps/s, 8.185 Matom-step/s
93.1% CPU use with 8 MPI tasks x no OpenMP threads

MPI task timing breakdown:
Section |  min time  |  avg time  |  max time  |%varavg| %total
---------------------------------------------------------------
Pair    | 0.0083671  | 0.017536   | 0.028234   |   5.6 |  2.56
Bond    | 0.0031577  | 0.0058272  | 0.0080006  |   2.4 |  0.85
Neigh   | 0.088336   | 0.088793   | 0.089264   |   0.1 | 12.98
Comm    | 0.047307   | 0.059013   | 0.070331   |   3.5 |  8.63
Output  | 0.00058538 | 0.00066615 | 0.00084006 |   0.0 |  0.10
Modify  | 0.48178    | 0.48962    | 0.50066    |   0.9 | 71.56
Other   |            | 0.02275    |            |       |  3.32

Nlocal:            700 ave         939 max         475 min
Histogram: 4 0 0 0 0 0 0 0 1 3
Nghost:        426.875 ave         530 max         359 min
Histogram: 2 1 1 0 1 0 2 0 0 1
Neighs:         679.25 ave        1074 max         316 min
Histogram: 3 1 0 0 0 0 1 0 1 2

Total # of neighbors = 5434
Ave neighs/atom = 0.97035714
Ave special neighs/atom = 0.57142857
Neighbor list builds = 151
Dangerous builds = 0
unfix	1

fix	1 rods	rigid/nvt molecule temp 1.4 1.4 1.0
  800 rigid bodies with 4000 atoms
print 	"rigid/nvt"
rigid/nvt
run	1000
Generated 0 of 1 mixed pair_coeff terms from geometric mixing rule
Per MPI rank memory allocation (min/avg/max) = 7.447 | 7.452 | 7.458 Mbytes
   Step          Temp          PotEng         TotEng         Press         Enthalpy          Lx             Ly             Lz            Pxx            Pyy            Pzz      
      6000   1.3953358      5.8896003      6.9855618      0.014184484    7.5963885      62.244         62.244         62.244         0.023607065   -0.0054544429   0.02440083   
      6100   1.4129563      5.8737674      6.9835688      0.0054012588   7.2161633      62.244         62.244         62.244         0.0070338347   0.0057478254   0.0034221163 
      6200   1.4209699      5.8781558      6.9942515      0.0069952845   7.2954896      62.244         62.244         62.244         0.003742572    0.0038758722   0.013367409  
      6300   1.4087776      5.8874562      6.9939755      0.0033194908   7.1369228      62.244         62.244         62.244         0.0017113975   0.0032711463   0.0049759286 
      6400   1.395509       5.8919796      6.9880772      0.0072581199   7.3006337      62.244         62.244         62.244         0.008570733    0.0052976572   0.0079059696 
      6500   1.4160631      5.8859238      6.9981655      0.0026338188   7.1115857      62.244         62.244         62.244         0.0057570025   0.00089974992  0.001244704  
      6600   1.3916891      5.9078986      7.0009959      0.0043281284   7.1873781      62.244         62.244         62.244        -2.0032677e-06  0.008853233    0.0041331554 
      6700   1.4421588      5.8788724      7.0116109      0.008129606    7.3616962      62.244         62.244         62.244         0.0082551603   0.0076833941   0.0084502637 
      6800   1.3918338      5.8903899      6.9836009      0.0056302626   7.226057       62.244         62.244         62.244         0.0008393968   0.011903261    0.0041481304 
      6900   1.381626       5.8867908      6.971984      -6.5840382e-05  6.9691487      62.244         62.244         62.244         0.0025475804  -0.0025681656  -0.00017693597
      7000   1.4076483      5.8838037      6.989436       0.0023298259   7.0897654      62.244         62.244         62.244         0.0015319236   0.0027774712   0.0026800829 
Loop time of 0.713974 on 8 procs for 1000 steps with 5600 atoms

Performance: 605063.893 tau/day, 1400.611 timesteps/s, 7.843 Matom-step/s
95.5% CPU use with 8 MPI tasks x no OpenMP threads

MPI task timing breakdown:
Section |  min time  |  avg time  |  max time  |%varavg| %total
---------------------------------------------------------------
Pair    | 0.0084233  | 0.018385   | 0.029776   |   6.2 |  2.57
Bond    | 0.0034852  | 0.0058733  | 0.0081152  |   2.3 |  0.82
Neigh   | 0.088664   | 0.089242   | 0.089762   |   0.1 | 12.50
Comm    | 0.04702    | 0.058479   | 0.070426   |   3.8 |  8.19
Output  | 0.00052927 | 0.00068386 | 0.0008878  |   0.0 |  0.10
Modify  | 0.4938     | 0.50614    | 0.529      |   1.5 | 70.89
Other   |            | 0.03517    |            |       |  4.93

Nlocal:            700 ave         916 max         474 min
Histogram: 2 2 0 0 0 0 0 0 0 4
Nghost:        420.375 ave         488 max         348 min
Histogram: 2 1 0 1 0 0 0 0 2 2
Neighs:        670.875 ave        1048 max         277 min
Histogram: 3 0 0 1 0 0 0 1 0 3

Total # of neighbors = 5367
Ave neighs/atom = 0.95839286
Ave special neighs/atom = 0.57142857
Neighbor list builds = 150
Dangerous builds = 0
unfix	1

compute	myTemp all temp

fix	1 rods	rigid/npt molecule temp 1.4 1.4 1.0 iso 0.05 0.05 1.0         dilate all
  800 rigid bodies with 4000 atoms
print 	"rigid/npt iso"
rigid/npt iso
fix_modify 1 temp myTemp

run	1000
Generated 0 of 1 mixed pair_coeff terms from geometric mixing rule
Per MPI rank memory allocation (min/avg/max) = 7.447 | 7.452 | 7.458 Mbytes
   Step          Temp          PotEng         TotEng         Press         Enthalpy          Lx             Ly             Lz            Pxx            Pyy            Pzz      
      7000   1.4076483      5.8838037      6.989436       0.057296986    9.4568171      62.244         62.244         62.244         0.026568281    0.016022713    0.12929996   
      7100   1.4251759      5.8670903      6.9864896      0.01698102     7.5481139      57.001995      57.001995      57.001995      0.01250548     0.023232248    0.015205333  
      7200   1.5068033      5.8272173      7.0107306      0.014905557    7.3473239      50.19361       50.19361       50.19361       0.0083532342   0.013630026    0.02273341   
      7300   1.5427073      5.7885372      7.0002512      0.015494915    7.2552459      45.169297      45.169297      45.169297      0.023571194    0.018827784    0.0040857659 
      7400   1.5884208      5.7385501      6.9861695      0.028363045    7.3487619      41.522607      41.522607      41.522607      0.025208898    0.018550484    0.041329754  
      7500   1.5666279      5.7105686      6.9410709      0.053826164    7.5027938      38.806599      38.806599      38.806599      0.046910509    0.042811503    0.07175648   
      7600   1.5460842      5.6645573      6.8789236      0.024363657    7.0956684      36.795785      36.795785      36.795785      0.040727797    0.031615878    0.00074729614
      7700   1.5078817      5.6447404      6.8291007      0.04334511     7.1684822      35.262414      35.262414      35.262414      0.02846748     0.058387309    0.04318054   
      7800   1.506519       5.601972       6.7852619      0.058804042    7.1995013      34.041661      34.041661      34.041661      0.038767368    0.058551622    0.079093136  
      7900   1.4992209      5.5545794      6.7321371      0.065157721    7.1570004      33.175981      33.175981      33.175981      0.10605398     0.041463382    0.047955804  
      8000   1.4950901      5.5317203      6.7060335      0.040298935    6.9540178      32.541648      32.541648      32.541648      0.021454433    0.074441114    0.025001258  
Loop time of 1.14252 on 8 procs for 1000 steps with 5600 atoms

Performance: 378111.358 tau/day, 875.258 timesteps/s, 4.901 Matom-step/s
94.7% CPU use with 8 MPI tasks x no OpenMP threads

MPI task timing breakdown:
Section |  min time  |  avg time  |  max time  |%varavg| %total
---------------------------------------------------------------
Pair    | 0.029505   | 0.050478   | 0.077115   |   8.7 |  4.42
Bond    | 0.0049569  | 0.0075317  | 0.010316   |   2.3 |  0.66
Neigh   | 0.35486    | 0.35543    | 0.35626    |   0.1 | 31.11
Comm    | 0.089882   | 0.11513    | 0.13663    |   5.5 | 10.08
Output  | 0.00053401 | 0.00058246 | 0.00088815 |   0.0 |  0.05
Modify  | 0.58016    | 0.58982    | 0.59778    |   0.8 | 51.62
Other   |            | 0.02356    |            |       |  2.06

Nlocal:            700 ave         934 max         513 min
Histogram: 4 0 0 0 0 0 0 2 0 2
Nghost:        983.875 ave        1109 max         860 min
Histogram: 2 1 0 1 0 0 1 0 1 2
Neighs:        3136.88 ave        5150 max        1652 min
Histogram: 3 1 0 0 0 0 2 0 1 1

Total # of neighbors = 25095
Ave neighs/atom = 4.48125
Ave special neighs/atom = 0.57142857
Neighbor list builds = 334
Dangerous builds = 0
unfix	1

fix	1 rods	rigid/npt molecule temp 1.4 1.4 1.0 x 0.05 0.05 1.0 dilate all
  800 rigid bodies with 4000 atoms
print 	"rigid/npt x"
rigid/npt x
run	1000
Generated 0 of 1 mixed pair_coeff terms from geometric mixing rule
Per MPI rank memory allocation (min/avg/max) = 7.452 | 7.46 | 7.472 Mbytes
   Step          Temp          PotEng         TotEng         Press         Enthalpy          Lx             Ly             Lz            Pxx            Pyy            Pzz      
      8000   1.4950901      5.5317203      6.7060335      0.17713225     7.7960378      32.541648      32.541648      32.541648      0.33428207    -0.034763121    0.2318778    
      8100   1.46242        5.5371676      6.6858201      0.026620893    6.8497787      32.570202      32.541648      32.541648      0.022639123    0.04370807     0.013515486  
      8200   1.4529372      5.5152676      6.6564719      0.039252329    6.8960183      32.272535      32.541648      32.541648      0.015415995    0.056132185    0.046208808  
      8300   1.4348834      5.4873584      6.6143825      0.049746709    6.9120344      31.641227      32.541648      32.541648      0.051170897    0.043438423    0.054630805  
      8400   1.4288761      5.4601477      6.5824533     -0.0038810139   6.5597585      30.923527      32.541648      32.541648      0.0099537793  -0.0050437485  -0.016553073  
      8500   1.4634408      5.4312343      6.5806886      0.065788487    6.9575873      30.29589       32.541648      32.541648      0.050504427    0.052422255    0.094438778  
      8600   1.4348551      5.4188231      6.545825       0.063316975    6.9019949      29.747192      32.541648      32.541648      0.0499696      0.080281332    0.059699991  
      8700   1.4321418      5.4064267      6.5312974      0.00090107928  6.5362801      29.242602      32.541648      32.541648      0.0031475049   0.0050989122  -0.0055431792 
      8800   1.4138228      5.4072428      6.5177248      0.063085937    6.8599682      28.688738      32.541648      32.541648      0.05059683     0.052218745    0.086442236  
      8900   1.3904799      5.3936127      6.4857602      0.06069848     6.808934       28.155758      32.541648      32.541648      0.089678184    0.061349047    0.031068209  
      9000   1.3890342      5.3896504      6.4806624     -0.0062603651   6.4480813      27.521669      32.541648      32.541648      0.012847143    0.015871209   -0.047499447  
Loop time of 1.1385 on 8 procs for 1000 steps with 5600 atoms

Performance: 379447.228 tau/day, 878.350 timesteps/s, 4.919 Matom-step/s
94.4% CPU use with 8 MPI tasks x no OpenMP threads

MPI task timing breakdown:
Section |  min time  |  avg time  |  max time  |%varavg| %total
---------------------------------------------------------------
Pair    | 0.048866   | 0.078152   | 0.11728    |   9.8 |  6.86
Bond    | 0.0050581  | 0.007567   | 0.01044    |   2.1 |  0.66
Neigh   | 0.28688    | 0.28765    | 0.28816    |   0.1 | 25.27
Comm    | 0.10589    | 0.13887    | 0.1625     |   6.1 | 12.20
Output  | 0.00049607 | 0.00054467 | 0.00083798 |   0.0 |  0.05
Modify  | 0.59503    | 0.60046    | 0.60699    |   0.5 | 52.74
Other   |            | 0.02525    |            |       |  2.22

Nlocal:            700 ave         891 max         531 min
Histogram: 2 2 0 0 0 0 0 2 0 2
Nghost:        1122.75 ave        1246 max         982 min
Histogram: 1 1 1 0 1 1 0 0 1 2
Neighs:        3799.25 ave        5736 max        2351 min
Histogram: 3 0 1 0 0 1 1 0 0 2

Total # of neighbors = 30394
Ave neighs/atom = 5.4275
Ave special neighs/atom = 0.57142857
Neighbor list builds = 169
Dangerous builds = 0
unfix	1

fix	1 rods	rigid/nph molecule iso 0.05 0.05 1.0 dilate all
  800 rigid bodies with 4000 atoms
print 	"rigid/nph iso"
rigid/nph iso
run	1000
Generated 0 of 1 mixed pair_coeff terms from geometric mixing rule
Per MPI rank memory allocation (min/avg/max) = 7.457 | 7.463 | 7.473 Mbytes
   Step          Temp          PotEng         TotEng         Press         Enthalpy          Lx             Ly             Lz            Pxx            Pyy            Pzz      
      9000   1.3890342      5.3896504      6.4806624      0.13824319     7.2001272      27.521669      32.541648      32.541648      0.083023811    0.1736687      0.15803706   
      9100   1.4064317      5.3697895      6.4744662      0.016853333    6.5604932      27.344446      32.332099      32.332099     -0.015781793    0.01082239     0.055519401  
      9200   1.4586342      5.3360981      6.4817771      0.091447634    6.9274652      26.92603       31.837364      31.837364      0.10571868     0.073951908    0.094672315  
      9300   1.4567477      5.324646       6.4688433      0.06946872     6.7945334      26.58018       31.428431      31.428431      0.059305207    0.060289185    0.088811769  
      9400   1.4632485      5.3215591      6.4708624      0.068509497    6.7855672      26.399986      31.215368      31.215368      0.063338811    0.073378071    0.06881161   
      9500   1.4776036      5.3112286      6.4718071      0.032504513    6.6199583      26.331367      31.134234      31.134234      0.058729018   -0.0070506681   0.045835187  
      9600   1.4810676      5.2824367      6.445736       0.057127552    6.7017079      26.181935      30.957545      30.957545      0.081368891    0.061985855    0.028027909  
      9700   1.4591356      5.275645       6.4217179     -0.026967037    6.3016978      26.123201      30.888098      30.888098     -0.039282626   -0.0005771627  -0.041041323  
      9800   1.4655807      5.2535522      6.4046873      0.03944784     6.5769297      25.957232      30.691856      30.691856      0.027035523    0.0086839601   0.082624038  
      9900   1.4676331      5.2444835      6.3972307      0.063032284    6.6674505      25.799079      30.504855      30.504855      0.050266459    0.11495593     0.023874467  
     10000   1.4829961      5.210664       6.375478       0.07316784     6.683799       25.651561      30.330431      30.330431      0.051168347    0.10388276     0.064452414  
Loop time of 1.17886 on 8 procs for 1000 steps with 5600 atoms

Performance: 366454.634 tau/day, 848.275 timesteps/s, 4.750 Matom-step/s
93.4% CPU use with 8 MPI tasks x no OpenMP threads

MPI task timing breakdown:
Section |  min time  |  avg time  |  max time  |%varavg| %total
---------------------------------------------------------------
Pair    | 0.06316    | 0.094063   | 0.13582    |   9.0 |  7.98
Bond    | 0.0055707  | 0.0076332  | 0.010933   |   2.0 |  0.65
Neigh   | 0.3041     | 0.30429    | 0.30454    |   0.0 | 25.81
Comm    | 0.11373    | 0.14907    | 0.17612    |   6.0 | 12.65
Output  | 0.00050983 | 0.00056238 | 0.0008422  |   0.0 |  0.05
Modify  | 0.59154    | 0.59463    | 0.59873    |   0.3 | 50.44
Other   |            | 0.02861    |            |       |  2.43

Nlocal:            700 ave         855 max         546 min
Histogram: 1 3 0 0 0 0 0 1 1 2
Nghost:        1211.75 ave        1347 max        1117 min
Histogram: 2 0 2 0 1 0 1 1 0 1
Neighs:        4757.38 ave        6520 max        3130 min
Histogram: 2 1 1 0 0 0 0 2 0 2

Total # of neighbors = 38059
Ave neighs/atom = 6.79625
Ave special neighs/atom = 0.57142857
Neighbor list builds = 167
Dangerous builds = 0
unfix	1

fix	1 rods	rigid/nph molecule x 0.05 0.05 1.0 y 0.05 0.05 1.0         couple xy dilate all
  800 rigid bodies with 4000 atoms
print 	"rigid/nph xy couple"
rigid/nph xy couple
run	1000
Generated 0 of 1 mixed pair_coeff terms from geometric mixing rule
Per MPI rank memory allocation (min/avg/max) = 7.458 | 7.465 | 7.475 Mbytes
   Step          Temp          PotEng         TotEng         Press         Enthalpy          Lx             Ly             Lz            Pxx            Pyy            Pzz      
     10000   1.4829961      5.210664       6.375478       0.089207182    6.751387       25.651561      30.330431      30.330431      0.14978434     0.25973017    -0.14189297   
     10100   1.4524588      5.2142306      6.3550591      0.046476392    6.5515726      25.695215      30.382047      30.330431      0.015885578    0.085928553    0.037615044  
     10200   1.4438876      5.2160989      6.3501953      0.032185955    6.4862046      25.687597      30.373039      30.330431     -0.00014953793  0.061457694    0.035249708  
     10300   1.4293361      5.2100827      6.3327497      0.042659923    6.513471       25.71977       30.41108       30.330431      0.047723941    0.005833844    0.074421982  
     10400   1.4235025      5.2009524      6.3190374      0.041113915    6.4923232      25.654254      30.333615      30.330431      0.042182666    0.12192785    -0.04076877   
     10500   1.4256986      5.2016425      6.3214524      0.067962143    6.6055577      25.549268      30.209479      30.330431      0.081235327    0.061307718    0.061343385  
     10600   1.4397229      5.1887677      6.319593       0.075608165    6.632963       25.439979      30.080256      30.330431      0.1337241      0.07897941     0.014120981  
     10700   1.4370144      5.1743022      6.303          0.038998939    6.4633519      25.338623      29.960413      30.330431      0.062202223    0.057826169   -0.0030315766 
     10800   1.4092547      5.179668       6.2865621      0.063904562    6.5451275      25.135734      29.720516      30.330431      0.064592694    0.081413528    0.045707463  
     10900   1.4259431      5.1735892      6.2935911      0.0022742736   6.3027152      25.029177      29.594523      30.330431      0.027412391   -0.038415465    0.017825894  
     11000   1.4372418      5.1630729      6.2919494      0.04508041     6.4691984      24.778235      29.297809      30.330431      0.089147069    0.061975625   -0.015881464  
Loop time of 1.16488 on 8 procs for 1000 steps with 5600 atoms

Performance: 370852.361 tau/day, 858.455 timesteps/s, 4.807 Matom-step/s
93.1% CPU use with 8 MPI tasks x no OpenMP threads

MPI task timing breakdown:
Section |  min time  |  avg time  |  max time  |%varavg| %total
---------------------------------------------------------------
Pair    | 0.070663   | 0.10364    | 0.13964    |   8.6 |  8.90
Bond    | 0.0057749  | 0.0076284  | 0.011005   |   1.8 |  0.65
Neigh   | 0.29873    | 0.29897    | 0.29937    |   0.0 | 25.67
Comm    | 0.1109     | 0.14314    | 0.16931    |   6.2 | 12.29
Output  | 0.00052188 | 0.00057072 | 0.00087753 |   0.0 |  0.05
Modify  | 0.5858     | 0.58947    | 0.59243    |   0.3 | 50.60
Other   |            | 0.02146    |            |       |  1.84

Nlocal:            700 ave         848 max         577 min
Histogram: 3 1 0 0 0 0 1 1 0 2
Nghost:           1231 ave        1333 max        1151 min
Histogram: 2 1 1 0 1 0 1 0 0 2
Neighs:        5104.25 ave        7199 max        3287 min
Histogram: 3 0 0 1 0 0 1 1 0 2

Total # of neighbors = 40834
Ave neighs/atom = 7.2917857
Ave special neighs/atom = 0.57142857
Neighbor list builds = 161
Dangerous builds = 0

Total wall time: 0:00:09
